p wcnf 151 302 303 
1 -141 -5 0 
1 127 111 0 
1 -132 -7 0 
1 8 110 0 
1 -79 -70 0 
1 -61 13 0 
1 -81 27 0 
1 12 23 0 
1 -64 86 0 
1 128 -136 0 
1 -18 71 0 
1 108 137 0 
1 -85 75 0 
1 -33 -42 0 
1 -40 117 0 
1 13 -46 0 
1 -68 51 0 
1 60 56 0 
1 34 55 0 
1 -56 -42 0 
1 74 131 0 
1 -72 121 0 
1 22 56 0 
1 131 37 0 
1 -133 18 0 
1 -44 -75 0 
1 62 -124 0 
1 -74 -137 0 
1 128 28 0 
1 -119 118 0 
1 129 55 0 
1 -62 96 0 
1 -140 -2 0 
1 20 146 0 
1 133 -141 0 
1 -17 -13 0 
1 150 128 0 
1 -143 146 0 
1 141 -55 0 
1 126 14 0 
1 135 83 0 
1 66 118 0 
1 129 -59 0 
1 -65 -29 0 
1 115 52 0 
1 101 -137 0 
1 98 -120 0 
1 -90 -14 0 
1 131 144 0 
1 -95 6 0 
1 -138 119 0 
1 -94 71 0 
1 121 29 0 
1 15 118 0 
1 71 149 0 
1 36 -15 0 
1 -55 50 0 
1 -146 -125 0 
1 35 63 0 
1 33 31 0 
1 90 72 0 
1 -106 -97 0 
1 -122 -28 0 
1 122 -25 0 
1 101 81 0 
1 -118 72 0 
1 -67 4 0 
1 -76 -5 0 
1 -30 94 0 
1 -2 -50 0 
1 -125 -69 0 
1 -35 110 0 
1 -58 65 0 
1 -2 -102 0 
1 -145 104 0 
1 -79 -114 0 
1 40 111 0 
1 67 -138 0 
1 -132 40 0 
1 -114 -4 0 
1 68 59 0 
1 -81 48 0 
1 113 115 0 
1 -1 32 0 
1 109 39 0 
1 107 -146 0 
1 -21 145 0 
1 -10 66 0 
1 -129 117 0 
1 119 81 0 
1 -120 134 0 
1 -119 76 0 
1 -146 -44 0 
1 -120 38 0 
1 150 142 0 
1 -55 95 0 
1 77 -34 0 
1 -44 119 0 
1 -146 124 0 
1 -141 -119 0 
1 -41 40 0 
1 -64 -88 0 
1 106 -12 0 
1 -39 -147 0 
1 27 -80 0 
1 139 122 0 
1 126 121 0 
1 54 -100 0 
1 -104 -15 0 
1 -58 -50 0 
1 -44 72 0 
1 129 127 0 
1 80 -143 0 
1 40 -129 0 
1 -72 79 0 
1 65 130 0 
1 -31 -148 0 
1 140 -123 0 
1 -13 -31 0 
1 25 50 0 
1 143 114 0 
1 -54 -135 0 
1 110 -46 0 
1 80 -28 0 
1 145 113 0 
1 99 42 0 
1 56 -101 0 
1 85 128 0 
1 -129 116 0 
1 26 45 0 
1 -121 -20 0 
1 -54 132 0 
1 -46 -131 0 
1 71 -128 0 
1 34 114 0 
1 17 -26 0 
1 113 96 0 
1 -95 -138 0 
1 94 134 0 
1 62 -110 0 
1 -99 -141 0 
1 -1 -126 0 
1 76 119 0 
1 -4 -29 0 
1 -144 93 0 
1 -17 98 0 
1 1 -74 0 
1 -104 -89 0 
1 -53 -20 0 
1 68 83 0 
1 -35 -113 0 
1 -93 18 0 
1 -51 60 0 
1 34 -37 0 
1 54 150 0 
1 -76 -141 0 
1 -37 -116 0 
1 4 -75 0 
1 -34 88 0 
1 -3 -32 0 
1 35 58 0 
1 80 -14 0 
1 -87 131 0 
1 -27 -19 0 
1 92 134 0 
1 -110 -5 0 
1 73 -6 0 
1 -84 -116 0 
1 -66 -64 0 
1 -105 150 0 
1 -89 -148 0 
1 55 128 0 
1 -104 120 0 
1 135 110 0 
1 2 9 0 
1 99 -94 0 
1 -110 -51 0 
1 140 -80 0 
1 -25 -103 0 
1 -127 97 0 
1 97 -151 0 
1 36 -48 0 
1 -70 -144 0 
1 53 -150 0 
1 123 68 0 
1 102 79 0 
1 -35 20 0 
1 9 -132 0 
1 -18 50 0 
1 90 49 0 
1 40 90 0 
1 -132 -110 0 
1 54 11 0 
1 117 110 0 
1 -139 -45 0 
1 91 -99 0 
1 -144 9 0 
1 128 10 0 
1 -52 -146 0 
1 -40 98 0 
1 -143 46 0 
1 42 151 0 
1 -27 -62 0 
1 -6 -47 0 
1 -80 25 0 
1 -78 21 0 
1 -114 39 0 
1 72 -64 0 
1 -146 145 0 
1 59 90 0 
1 -6 126 0 
1 -15 -55 0 
1 64 92 0 
1 -121 67 0 
1 119 -19 0 
1 -83 -84 0 
1 -130 129 0 
1 -89 104 0 
1 -90 -2 0 
1 45 -100 0 
1 -98 132 0 
1 -28 -42 0 
1 9 -16 0 
1 -136 66 0 
1 34 140 0 
1 -100 -145 0 
1 121 54 0 
1 135 -122 0 
1 -91 -64 0 
1 -48 139 0 
1 38 119 0 
1 43 -69 0 
1 30 144 0 
1 -52 39 0 
1 -98 -43 0 
1 -91 24 0 
1 -144 23 0 
1 -27 -57 0 
1 87 74 0 
1 -119 -76 0 
1 -16 96 0 
1 2 -97 0 
1 -22 -7 0 
1 -40 56 0 
1 -130 26 0 
1 -110 -42 0 
1 -147 -145 0 
1 -97 30 0 
1 84 -62 0 
1 76 -24 0 
1 142 -117 0 
1 -62 -130 0 
1 50 -146 0 
1 -60 -32 0 
1 -133 112 0 
1 -14 -72 0 
1 -61 -37 0 
1 -75 28 0 
1 123 32 0 
1 99 -44 0 
1 -145 -52 0 
1 20 -7 0 
1 125 -133 0 
1 -99 25 0 
1 72 -78 0 
1 -63 -38 0 
1 -105 -34 0 
1 -127 53 0 
1 10 -95 0 
1 130 107 0 
1 56 -142 0 
1 -10 52 0 
1 -19 -58 0 
1 -85 -74 0 
1 -98 -150 0 
1 -113 -20 0 
1 -67 -33 0 
1 -6 -36 0 
1 75 -67 0 
1 126 57 0 
1 41 -7 0 
1 -120 -50 0 
1 148 138 0 
1 12 150 0 
1 -94 -45 0 
1 127 -106 0 
1 32 -76 0 
1 44 123 0 
1 119 -141 0 
1 13 12 0 
1 112 4 0 
1 -145 55 0 
1 -95 -118 0 
1 -3 -135 0 
1 -105 82 0 
1 -4 -86 0 
1 127 85 0 
1 110 -101 0 
1 -118 -67 0 
1 -17 -132 0 
1 -106 81 0 
1 -39 45 0 
